NAME : random30---8_4_2016--18:35:10
COMMENT : 30-node TSP instance randomly created on 8/4/2016 at 18:35:10
TYPE : TSP
DIMENSION : 30
EDGE_WEIGHT_TYPE : EUC_2D
NODE_COORD_SECTION
1 95.116346 16.115609
2 45.641653 83.655851
3 50.180486 53.190370
4 86.388371 24.561777
5 10.158976 60.687210
6 83.165461 33.808809
7 62.613776 67.383634
8 80.653744 47.920972
9 97.553623 41.292009
10 49.218435 28.347334
11 76.324468 12.677921
12 85.751356 63.581871
13 103.557282 28.734003
14 16.055064 101.604427
15 77.514427 67.898684
16 30.610046 31.657076
17 91.535113 65.796640
18 54.665024 57.581557
19 33.111768 100.579134
20 104.350494 103.145434
21 35.934664 35.497145
22 78.382458 85.513855
23 49.276267 107.200891
24 85.600409 100.446190
25 88.450648 20.212014
26 33.511738 58.818154
27 57.417330 24.420712
28 67.185255 101.230241
29 33.969358 74.273327
30 95.978035 108.003125
EOF